data/lp_files/pEFS/31_0.lp
\ Model foo
\ LP format - for model browsing. Use MPS format to capture full model detail.
Minimize
  z
Subject To
 allocateEach[1]: x[1,1] + x[2,1] = 1
 allocateEach[2]: x[1,2] + x[2,2] = 1
 allocateEach[3]: x[1,3] + x[2,3] = 1
 allocateEach[4]: x[1,4] + x[2,4] = 1
 allocateEach[5]: x[1,5] + x[2,5] = 1
 allocateEach[6]: x[1,6] + x[2,6] = 1
 allocateEach[7]: x[1,7] + x[2,7] = 1
 allocateEach[8]: x[1,8] + x[2,8] = 1
 allocateEach[9]: x[1,9] + x[2,9] = 1
 allocateEach[10]: x[1,10] + x[2,10] = 1
 allocateEach[11]: x[1,11] + x[2,11] = 1
 allocateAllCash: cashProportion[1] + cashProportion[2] = 1
 findWorstP[1,2]: z + 0.0110040054579867 cashProportion[1]
   - 0.0110040054579867 cashProportion[2] + 0.1426999427791716 x[1,1]
   + 0.1839649632466218 x[1,2] + 0.083652449491615 x[1,3]
   + 0.0740349487213346 x[1,4] + 0.0287204542453453 x[1,5]
   + 0.1463312645803073 x[1,6] + 0.00598617896914477 x[1,7]
   + 0.2093181918218232 x[1,8] + 0.0269598133720674 x[1,9]
   + 0.00631629913288437 x[1,10] + 0.0810114881816981 x[1,11]
   - 0.1426999427791716 x[2,1] - 0.1839649632466218 x[2,2]
   - 0.083652449491615 x[2,3] - 0.0740349487213346 x[2,4]
   - 0.0287204542453453 x[2,5] - 0.1463312645803073 x[2,6]
   - 0.00598617896914477 x[2,7] - 0.2093181918218232 x[2,8]
   - 0.0269598133720674 x[2,9] - 0.00631629913288437 x[2,10]
   - 0.0810114881816981 x[2,11] >= 0
 findWorstP[2,1]: z - 0.0102679946606428 cashProportion[1]
   + 0.0102679946606428 cashProportion[2] - 0.1551493993223123 x[1,1]
   - 0.1292535167881713 x[1,2] - 0.0776876476024232 x[1,3]
   - 0.1091077112639901 x[1,4] - 0.092124448095287 x[1,5]
   - 0.0378683643084506 x[1,6] - 0.0521819488653866 x[1,7]
   - 0.1075264400862511 x[1,8] - 0.0510935414313585 x[1,9]
   - 0.1065407125988295 x[1,10] - 0.071198274976897 x[1,11]
   + 0.1551493993223123 x[2,1] + 0.1292535167881713 x[2,2]
   + 0.0776876476024232 x[2,3] + 0.1091077112639901 x[2,4]
   + 0.092124448095287 x[2,5] + 0.0378683643084506 x[2,6]
   + 0.0521819488653866 x[2,7] + 0.1075264400862511 x[2,8]
   + 0.0510935414313585 x[2,9] + 0.1065407125988295 x[2,10]
   + 0.071198274976897 x[2,11] >= 0
Bounds
 z <= 1
 -infinity <= cashProportion[1] <= 1
 -infinity <= cashProportion[2] <= 1
Binaries
 x[1,1] x[1,2] x[1,3] x[1,4] x[1,5] x[1,6] x[1,7] x[1,8] x[1,9] x[1,10]
 x[1,11] x[2,1] x[2,2] x[2,3] x[2,4] x[2,5] x[2,6] x[2,7] x[2,8] x[2,9]
 x[2,10] x[2,11]
End
