data/mps_files/pEFS/31_0.mps
NAME foo
ROWS
 N  OBJ
 E  allocateEach[1]
 E  allocateEach[2]
 E  allocateEach[3]
 E  allocateEach[4]
 E  allocateEach[5]
 E  allocateEach[6]
 E  allocateEach[7]
 E  allocateEach[8]
 E  allocateEach[9]
 E  allocateEach[10]
 E  allocateEach[11]
 E  allocateAllCash
 G  findWorstP[1,2]
 G  findWorstP[2,1]
COLUMNS
    z         OBJ       1
    z         findWorstP[1,2]  1
    z         findWorstP[2,1]  1
    cashProportion[1]  allocateAllCash  1
    cashProportion[1]  findWorstP[1,2]  1.1004005457986710e-02
    cashProportion[1]  findWorstP[2,1]  -1.0267994660642777e-02
    cashProportion[2]  allocateAllCash  1
    cashProportion[2]  findWorstP[1,2]  -1.1004005457986710e-02
    cashProportion[2]  findWorstP[2,1]  1.0267994660642777e-02
    MARKER    'MARKER'                 'INTORG'
    x[1,1]    allocateEach[1]  1
    x[1,1]    findWorstP[1,2]  1.4269994277917164e-01
    x[1,1]    findWorstP[2,1]  -1.5514939932231234e-01
    x[1,2]    allocateEach[2]  1
    x[1,2]    findWorstP[1,2]  1.8396496324662182e-01
    x[1,2]    findWorstP[2,1]  -1.2925351678817126e-01
    x[1,3]    allocateEach[3]  1
    x[1,3]    findWorstP[1,2]  8.3652449491614961e-02
    x[1,3]    findWorstP[2,1]  -7.7687647602423249e-02
    x[1,4]    allocateEach[4]  1
    x[1,4]    findWorstP[1,2]  7.4034948721334579e-02
    x[1,4]    findWorstP[2,1]  -1.0910771126399015e-01
    x[1,5]    allocateEach[5]  1
    x[1,5]    findWorstP[1,2]  2.8720454245345313e-02
    x[1,5]    findWorstP[2,1]  -9.2124448095286984e-02
    x[1,6]    allocateEach[6]  1
    x[1,6]    findWorstP[1,2]  1.4633126458030726e-01
    x[1,6]    findWorstP[2,1]  -3.7868364308450558e-02
    x[1,7]    allocateEach[7]  1
    x[1,7]    findWorstP[1,2]  0.00598617896914477
    x[1,7]    findWorstP[2,1]  -5.2181948865386588e-02
    x[1,8]    allocateEach[8]  1
    x[1,8]    findWorstP[1,2]  2.0931819182182318e-01
    x[1,8]    findWorstP[2,1]  -1.0752644008625115e-01
    x[1,9]    allocateEach[9]  1
    x[1,9]    findWorstP[1,2]  2.6959813372067438e-02
    x[1,9]    findWorstP[2,1]  -5.1093541431358455e-02
    x[1,10]   allocateEach[10]  1
    x[1,10]   findWorstP[1,2]  6.3162991328843711e-03
    x[1,10]   findWorstP[2,1]  -1.0654071259882945e-01
    x[1,11]   allocateEach[11]  1
    x[1,11]   findWorstP[1,2]  8.1011488181698149e-02
    x[1,11]   findWorstP[2,1]  -7.1198274976897014e-02
    x[2,1]    allocateEach[1]  1
    x[2,1]    findWorstP[1,2]  -1.4269994277917164e-01
    x[2,1]    findWorstP[2,1]  1.5514939932231234e-01
    x[2,2]    allocateEach[2]  1
    x[2,2]    findWorstP[1,2]  -1.8396496324662182e-01
    x[2,2]    findWorstP[2,1]  1.2925351678817126e-01
    x[2,3]    allocateEach[3]  1
    x[2,3]    findWorstP[1,2]  -8.3652449491614961e-02
    x[2,3]    findWorstP[2,1]  7.7687647602423249e-02
    x[2,4]    allocateEach[4]  1
    x[2,4]    findWorstP[1,2]  -7.4034948721334579e-02
    x[2,4]    findWorstP[2,1]  1.0910771126399015e-01
    x[2,5]    allocateEach[5]  1
    x[2,5]    findWorstP[1,2]  -2.8720454245345313e-02
    x[2,5]    findWorstP[2,1]  9.2124448095286984e-02
    x[2,6]    allocateEach[6]  1
    x[2,6]    findWorstP[1,2]  -1.4633126458030726e-01
    x[2,6]    findWorstP[2,1]  3.7868364308450558e-02
    x[2,7]    allocateEach[7]  1
    x[2,7]    findWorstP[1,2]  -0.00598617896914477
    x[2,7]    findWorstP[2,1]  5.2181948865386588e-02
    x[2,8]    allocateEach[8]  1
    x[2,8]    findWorstP[1,2]  -2.0931819182182318e-01
    x[2,8]    findWorstP[2,1]  1.0752644008625115e-01
    x[2,9]    allocateEach[9]  1
    x[2,9]    findWorstP[1,2]  -2.6959813372067438e-02
    x[2,9]    findWorstP[2,1]  5.1093541431358455e-02
    x[2,10]   allocateEach[10]  1
    x[2,10]   findWorstP[1,2]  -6.3162991328843711e-03
    x[2,10]   findWorstP[2,1]  1.0654071259882945e-01
    x[2,11]   allocateEach[11]  1
    x[2,11]   findWorstP[1,2]  -8.1011488181698149e-02
    x[2,11]   findWorstP[2,1]  7.1198274976897014e-02
    MARKER    'MARKER'                 'INTEND'
RHS
    RHS1      allocateEach[1]  1
    RHS1      allocateEach[2]  1
    RHS1      allocateEach[3]  1
    RHS1      allocateEach[4]  1
    RHS1      allocateEach[5]  1
    RHS1      allocateEach[6]  1
    RHS1      allocateEach[7]  1
    RHS1      allocateEach[8]  1
    RHS1      allocateEach[9]  1
    RHS1      allocateEach[10]  1
    RHS1      allocateEach[11]  1
    RHS1      allocateAllCash  1
BOUNDS
 UP BND1      z         1
 MI BND1      cashProportion[1]
 UP BND1      cashProportion[1]  1
 MI BND1      cashProportion[2]
 UP BND1      cashProportion[2]  1
 BV BND1      x[1,1]  
 BV BND1      x[1,2]  
 BV BND1      x[1,3]  
 BV BND1      x[1,4]  
 BV BND1      x[1,5]  
 BV BND1      x[1,6]  
 BV BND1      x[1,7]  
 BV BND1      x[1,8]  
 BV BND1      x[1,9]  
 BV BND1      x[1,10] 
 BV BND1      x[1,11] 
 BV BND1      x[2,1]  
 BV BND1      x[2,2]  
 BV BND1      x[2,3]  
 BV BND1      x[2,4]  
 BV BND1      x[2,5]  
 BV BND1      x[2,6]  
 BV BND1      x[2,7]  
 BV BND1      x[2,8]  
 BV BND1      x[2,9]  
 BV BND1      x[2,10] 
 BV BND1      x[2,11] 
ENDATA
